3	25
313	628	113	589	509	442	909	575	397	790	810	906	296	883	508	475	280	604	100	716	115	492	77	538	703	
216	461	492	467	314	527	694	413	460	138	398	645	528	769	334	791	313	820	282	772	60	191	886	63	73	
1852	1852	1852	
